results/filo2/x-long/X-n157-k13.vrp_seed-4.out
16876	1371
