results/filo2/x-long/X-n157-k13.vrp_seed-4.vrp.sol
Route #1: 151 113 82 11 77 45 83 90 51 100 91 129
Route #2: 41 110 54 121 21 135 73 106 3 42 32 143
Route #3: 17 67 4 35 6 115 55 95 105 152 56 61
Route #4: 92 137 7 28 66 94 86 132 111 102 96 59
Route #5: 49 14 120 26 128 142 62 97 87 65 16 75
Route #6: 37 116 19 46 145 127 104 130 124 44 27 101
Route #7: 12 60 109 114 29 58 39 10 134 52 107 18
Route #8: 47 5 153 76 136 112 89 81 119 2 57 88
Route #9: 15 147 118 20 68 36 103 93 99 69 122 38
Route #10: 148 13 63 64 141 43 24 156 150 8 149 71
Route #11: 72 48 33 84 79 74 30 22 155 25 138 34
Route #12: 70 139 125 78 146 80 40 108 9 117 1 126
Route #13: 131 133 50 154 98 123 53 144 85 140 31 23
Cost 16876.000000